
GUB cover cuts applied:  1
Clique cuts applied:  87
Cover cuts applied:  15
Flow cuts applied:  7
Mixed integer rounding cuts applied:  51
Zero-half cuts applied:  105

Root node processing (before b&c):
  Real time             =    4.81 sec. (3554.53 ticks)
Parallel b&c, 4 threads:
  Real time             =    0.00 sec. (0.00 ticks)
  Sync time (average)   =    0.00 sec.
  Wait time (average)   =    0.00 sec.
                          ------------
Total (root+branch&cut) =    4.81 sec. (3554.53 ticks)
Version identifier: 12.10.0.0 | 2019-11-26 | 843d4de
CPXPARAM_MIP_Interval                            10
CPXPARAM_MIP_Tolerances_AbsMIPGap                0.98999999999999999
Tried aggregator 2 times.
MIP Presolve eliminated 150315 rows and 150396 columns.
MIP Presolve modified 1 coefficients.
Aggregator did 149 substitutions.
Reduced MIP has 12705 rows, 9889 columns, and 39611 nonzeros.
Reduced MIP has 9889 binaries, 0 generals, 0 SOSs, and 0 indicators.
Presolve time = 0.26 sec. (189.98 ticks)
Found incumbent of value 4.000000 after 0.53 sec. (505.47 ticks)
Probing fixed 56 vars, tightened 0 bounds.
Probing changed sense of 116 constraints.
Probing time = 0.02 sec. (19.55 ticks)
Tried aggregator 2 times.
Detecting symmetries...
MIP Presolve eliminated 429 rows and 311 columns.
Aggregator did 55 substitutions.
Reduced MIP has 12221 rows, 9523 columns, and 38094 nonzeros.
Reduced MIP has 9523 binaries, 0 generals, 0 SOSs, and 0 indicators.
Presolve time = 0.06 sec. (69.57 ticks)
Probing time = 0.02 sec. (18.19 ticks)
Clique table members: 25980.
MIP emphasis: balance optimality and feasibility.
MIP search method: dynamic search.
Parallel mode: deterministic, using up to 4 threads.
Root relaxation solution time = 0.28 sec. (232.62 ticks)

        Nodes                                         Cuts/
   Node  Left     Objective  IInf  Best Integer    Best Bound    ItCnt     Gap

*     0+    0                            4.0000       54.0000              --- 
*     0+    0                           18.0000       54.0000           200.00%
      0     0       35.3333  1255       18.0000       35.3333     2489   96.30%
      0     0       35.3333  1255       18.0000      Cuts: 57     4432   96.30%
*     0+    0                           34.0000       35.3333             3.92%
      0     0       35.3333  1255       34.0000       Cuts: 7     4767    3.92%
      0     0       35.3333  1255       34.0000       Cuts: 6     4846    3.92%
Detecting symmetries...
      0     2       35.3333     2       34.0000       35.3333     4846    3.92%
Elapsed time = 2.20 sec. (1694.25 ticks, tree = 0.02 MB, solutions = 3)
     10     2        cutoff             34.0000       35.3274    16176    3.90%
     20     3        cutoff             34.0000       35.1864    23473    3.49%
the number of Nodes = 30
